certificates/rado_a11_c237_N36.cnf
c Rad2 upper bound instance: x1 + 11*x2 - x3 = 237, interval [1,36]
p cnf 36 232
1 6 22 0
-1 -6 -22 0
1 17 23 0
-1 -17 -23 0
1 24 28 0
-1 -24 -28 0
2 7 22 0
-2 -7 -22 0
2 18 23 0
-2 -18 -23 0
2 24 29 0
-2 -24 -29 0
3 8 22 0
-3 -8 -22 0
3 19 23 0
-3 -19 -23 0
3 24 30 0
-3 -24 -30 0
4 9 22 0
-4 -9 -22 0
4 20 23 0
-4 -20 -23 0
4 24 31 0
-4 -24 -31 0
5 10 22 0
-5 -10 -22 0
5 21 23 0
-5 -21 -23 0
5 24 32 0
-5 -24 -32 0
6 11 22 0
-6 -11 -22 0
6 22 23 0
-6 -22 -23 0
6 24 33 0
-6 -24 -33 0
1 7 21 0
-1 -7 -21 0
7 12 22 0
-7 -12 -22 0
7 23 0
-7 -23 0
7 24 34 0
-7 -24 -34 0
2 8 21 0
-2 -8 -21 0
8 13 22 0
-8 -13 -22 0
8 23 24 0
-8 -23 -24 0
8 24 35 0
-8 -24 -35 0
3 9 21 0
-3 -9 -21 0
9 14 22 0
-9 -14 -22 0
9 23 25 0
-9 -23 -25 0
9 24 36 0
-9 -24 -36 0
4 10 21 0
-4 -10 -21 0
10 15 22 0
-10 -15 -22 0
10 23 26 0
-10 -23 -26 0
5 11 21 0
-5 -11 -21 0
11 16 22 0
-11 -16 -22 0
11 23 27 0
-11 -23 -27 0
6 12 21 0
-6 -12 -21 0
12 17 22 0
-12 -17 -22 0
12 23 28 0
-12 -23 -28 0
7 13 21 0
-7 -13 -21 0
13 18 22 0
-13 -18 -22 0
13 23 29 0
-13 -23 -29 0
8 14 21 0
-8 -14 -21 0
14 19 22 0
-14 -19 -22 0
14 23 30 0
-14 -23 -30 0
9 15 21 0
-9 -15 -21 0
15 20 22 0
-15 -20 -22 0
15 23 31 0
-15 -23 -31 0
10 16 21 0
-10 -16 -21 0
16 21 22 0
-16 -21 -22 0
16 23 32 0
-16 -23 -32 0
11 17 21 0
-11 -17 -21 0
17 22 0
-17 -22 0
17 23 33 0
-17 -23 -33 0
1 18 20 0
-1 -18 -20 0
12 18 21 0
-12 -18 -21 0
18 22 23 0
-18 -22 -23 0
18 23 34 0
-18 -23 -34 0
2 19 20 0
-2 -19 -20 0
13 19 21 0
-13 -19 -21 0
19 22 24 0
-19 -22 -24 0
19 23 35 0
-19 -23 -35 0
3 20 0
-3 -20 0
14 20 21 0
-14 -20 -21 0
20 22 25 0
-20 -22 -25 0
20 23 36 0
-20 -23 -36 0
4 20 21 0
-4 -20 -21 0
15 21 0
-15 -21 0
21 22 26 0
-21 -22 -26 0
5 20 22 0
-5 -20 -22 0
22 27 0
-22 -27 0
6 20 23 0
-6 -20 -23 0
17 21 23 0
-17 -21 -23 0
22 23 28 0
-22 -23 -28 0
7 20 24 0
-7 -20 -24 0
18 21 24 0
-18 -21 -24 0
22 24 29 0
-22 -24 -29 0
8 20 25 0
-8 -20 -25 0
19 21 25 0
-19 -21 -25 0
22 25 30 0
-22 -25 -30 0
9 20 26 0
-9 -20 -26 0
20 21 26 0
-20 -21 -26 0
22 26 31 0
-22 -26 -31 0
10 20 27 0
-10 -20 -27 0
21 27 0
-21 -27 0
22 27 32 0
-22 -27 -32 0
11 20 28 0
-11 -20 -28 0
21 22 28 0
-21 -22 -28 0
22 28 33 0
-22 -28 -33 0
1 19 29 0
-1 -19 -29 0
12 20 29 0
-12 -20 -29 0
21 23 29 0
-21 -23 -29 0
22 29 34 0
-22 -29 -34 0
2 19 30 0
-2 -19 -30 0
13 20 30 0
-13 -20 -30 0
21 24 30 0
-21 -24 -30 0
22 30 35 0
-22 -30 -35 0
3 19 31 0
-3 -19 -31 0
14 20 31 0
-14 -20 -31 0
21 25 31 0
-21 -25 -31 0
22 31 36 0
-22 -31 -36 0
4 19 32 0
-4 -19 -32 0
15 20 32 0
-15 -20 -32 0
21 26 32 0
-21 -26 -32 0
5 19 33 0
-5 -19 -33 0
16 20 33 0
-16 -20 -33 0
21 27 33 0
-21 -27 -33 0
6 19 34 0
-6 -19 -34 0
17 20 34 0
-17 -20 -34 0
21 28 34 0
-21 -28 -34 0
7 19 35 0
-7 -19 -35 0
18 20 35 0
-18 -20 -35 0
21 29 35 0
-21 -29 -35 0
8 19 36 0
-8 -19 -36 0
19 20 36 0
-19 -20 -36 0
21 30 36 0
-21 -30 -36 0
