certificates/rado_a11_c237_N36.drat
22 -33 -34 -35 0
-22 -36 0
-24 -34 22 0
-34 -35 22 0
d -33 -34 22 -35 0
24 -35 22 0
-35 22 0
d 24 -35 22 0
d -34 -35 22 0
-24 -36 0
-36 0
21 -9 0
24 0
-21 0
15 0
27 0
30 0
-9 0
-22 0
-3 0
4 0
0
